50
252 57
349 138
490 175
812 425
535 994
544 805
531 344
575 300
902 625
171 589
800 31
276 875
196 720
529 960
965 140
566 915
793 261
655 895
378 631
635 330
107 670
956 119
856 406
794 960
430 524
119 859
889 487
901 991
524 985
772 884
67 120
496 501
133 571
846 659
14 899
423 959
112 321
278 859
121 14
691 229
959 450
810 73
736 228
342 314
815 163
990 213
456 551
73 755
269 655
14 25